NAME          
ROWS
 N  OBJ
 L  c1
 L  c2
 L  c3
COLUMNS
    MARKER    'MARKER'                 'INTORG'
    x[1]      c1        602
    x[1]      c2        611
    x[1]      c3        722
    x[1]      OBJ       -37
    x[2]      c1        965
    x[2]      c2        369
    x[2]      c3        227
    x[2]      OBJ       -903
    x[3]      c1        77
    x[3]      c2        826
    x[3]      c3        710
    x[3]      OBJ       -790
    x[4]      c1        151
    x[4]      c2        153
    x[4]      c3        164
    x[4]      OBJ       -604
    x[5]      c1        306
    x[5]      c2        887
    x[5]      c3        334
    x[5]      OBJ       -308
    x[6]      c1        876
    x[6]      c2        562
    x[6]      c3        101
    x[6]      OBJ       -348
    x[7]      c1        430
    x[7]      c2        505
    x[7]      c3        456
    x[7]      OBJ       -382
    x[8]      c1        712
    x[8]      c2        120
    x[8]      c3        422
    x[8]      OBJ       -32
    x[9]      c1        925
    x[9]      c2        859
    x[9]      c3        736
    x[9]      OBJ       -124
    x[10]     c1        55
    x[10]     c2        485
    x[10]     c3        743
    x[10]     OBJ       -308
    x[11]     c1        688
    x[11]     c2        755
    x[11]     c3        360
    x[11]     OBJ       -357
    x[12]     c1        430
    x[12]     c2        335
    x[12]     c3        946
    x[12]     OBJ       -879
    x[13]     c1        999
    x[13]     c2        420
    x[13]     c3        260
    x[13]     OBJ       -359
    x[14]     c1        136
    x[14]     c2        961
    x[14]     c3        301
    x[14]     OBJ       -793
    x[15]     c1        122
    x[15]     c2        84
    x[15]     c3        763
    x[15]     OBJ       -955
    x[16]     c1        164
    x[16]     c2        418
    x[16]     c3        273
    x[16]     OBJ       -292
    x[17]     c1        805
    x[17]     c2        63
    x[17]     c3        5
    x[17]     OBJ       -218
    x[18]     c1        933
    x[18]     c2        2
    x[18]     c3        844
    x[18]     OBJ       -302
    x[19]     c1        521
    x[19]     c2        157
    x[19]     c3        406
    x[19]     OBJ       -549
    x[20]     c1        307
    x[20]     c2        209
    x[20]     c3        700
    x[20]     OBJ       -96
    x[21]     c1        536
    x[21]     c2        610
    x[21]     c3        680
    x[21]     OBJ       -225
    x[22]     c1        325
    x[22]     c2        444
    x[22]     c3        977
    x[22]     OBJ       -736
    x[23]     c1        787
    x[23]     c2        987
    x[23]     c3        287
    x[23]     OBJ       -860
    x[24]     c1        184
    x[24]     c2        492
    x[24]     c3        73
    x[24]     OBJ       -509
    x[25]     c1        342
    x[25]     c2        501
    x[25]     c3        76
    x[25]     OBJ       -108
RHS
    rhs       c1        6189
    rhs       c2        5908
    rhs       c3        5783
RANGES
BOUNDS
 LO bounds    x[1]      0
 PL bounds    x[1]
 LO bounds    x[2]      0
 PL bounds    x[2]
 LO bounds    x[3]      0
 PL bounds    x[3]
 LO bounds    x[4]      0
 PL bounds    x[4]
 LO bounds    x[5]      0
 PL bounds    x[5]
 LO bounds    x[6]      0
 PL bounds    x[6]
 LO bounds    x[7]      0
 PL bounds    x[7]
 LO bounds    x[8]      0
 PL bounds    x[8]
 LO bounds    x[9]      0
 PL bounds    x[9]
 LO bounds    x[10]     0
 PL bounds    x[10]
 LO bounds    x[11]     0
 PL bounds    x[11]
 LO bounds    x[12]     0
 PL bounds    x[12]
 LO bounds    x[13]     0
 PL bounds    x[13]
 LO bounds    x[14]     0
 PL bounds    x[14]
 LO bounds    x[15]     0
 PL bounds    x[15]
 LO bounds    x[16]     0
 PL bounds    x[16]
 LO bounds    x[17]     0
 PL bounds    x[17]
 LO bounds    x[18]     0
 PL bounds    x[18]
 LO bounds    x[19]     0
 PL bounds    x[19]
 LO bounds    x[20]     0
 PL bounds    x[20]
 LO bounds    x[21]     0
 PL bounds    x[21]
 LO bounds    x[22]     0
 PL bounds    x[22]
 LO bounds    x[23]     0
 PL bounds    x[23]
 LO bounds    x[24]     0
 PL bounds    x[24]
 LO bounds    x[25]     0
 PL bounds    x[25]
ENDATA
